results/x-10M/X-n143-k7.vrp_seed-8.out
15700	11959
