results/x-10M/X-n143-k7.vrp_seed-8.vrp.sol
Route #1: 128 118 54 12 89 45 90 18 133 28 83 56 91 85 120 97 19 7 32 16 36
Route #2: 4 48 87 30 121 34 138 105 129 76 3 94 75 26 112 63 113 10 103 38 134 92 108 117
Route #3: 25 35 142 82 14 37 122 77 22 119 80 39 29 42 131 69 140 141 15 27 106 24 99 71 130
Route #4: 136 116 17 93 5 107 1 111 72 60 79 98 31 6 102 53 110 114 43 8 86 41 2 78
Route #5: 109 9 50 49 51 88 52 20 66 101 46 67 58 135 59 40 70 124 115
Route #6: 73 57 95 139 55 137 123 125 33 21 23 132 104 62 96 47 81 100 11 74 44 64 61 65
Route #7: 126 13 127 84 68
Cost 15700.000000